Gurobi 12.0.1:   lim:time = 500
  mip:bestbound = 1
Set parameter LogToConsole to value 1
  tech:outlev = 1
Set parameter InfUnbdInfo to value 1
Gurobi Optimizer version 12.0.1 build v12.0.1rc0 (win64 - Windows 11.0 (26100.2))

CPU model: Intel(R) Core(TM) i7-10700 CPU @ 2.90GHz, instruction set [SSE2|AVX|AVX2]
Thread count: 8 physical cores, 16 logical processors, using up to 16 threads

Non-default parameters:
TimeLimit  500
InfUnbdInfo  1

Optimize a model with 325 rows, 631 columns and 3180 nonzeros
Model fingerprint: 0xefdc7449
Model has 1 quadratic objective term
Model has 5 quadratic constraints
Variable types: 26 continuous, 605 integer (0 binary)
Coefficient statistics:
  Matrix range     [1e+00, 1e+05]
  QMatrix range    [1e+00, 1e+00]
  QLMatrix range   [1e+00, 2e+01]
  Objective range  [2e+01, 3e+02]
  QObjective range [2e+00, 2e+00]
  Bounds range     [1e+00, 8e+01]
  RHS range        [1e+00, 1e+05]
  QRHS range       [1e+02, 1e+02]
Presolve removed 30 rows and 53 columns
Presolve time: 0.02s
Presolved: 613 rows, 821 columns, 4308 nonzeros
Variable types: 15 continuous, 806 integer (806 binary)

Root relaxation: objective 4.308173e+02, 72 iterations, 0.00 seconds (0.00 work units)

    Nodes    |    Current Node    |     Objective Bounds      |     Work
 Expl Unexpl |  Obj  Depth IntInf | Incumbent    BestBd   Gap | It/Node Time

     0     0  430.81727    0   28          -  430.81727      -     -    0s
H    0     0                    1783.8700000  430.81727  75.8%     -    0s
H    0     0                    1773.7300000  430.81727  75.7%     -    0s
H    0     0                    1544.3500000  430.81727  72.1%     -    0s
H    0     0                    1178.1700000  586.19000  50.2%     -    0s
H    0     0                    1003.8900000  586.19000  41.6%     -    0s
     0     0  586.19000    0   19 1003.89000  586.19000  41.6%     -    0s
     0     0  602.45000    0   21 1003.89000  602.45000  40.0%     -    0s
     0     0  637.37500    0   20 1003.89000  637.37500  36.5%     -    0s
     0     0  637.37500    0   16 1003.89000  637.37500  36.5%     -    0s
     0     2  642.10500    0   16 1003.89000  642.10500  36.0%     -    0s
H   83    98                     977.3400000  642.10500  34.3%  12.7    0s
*  301   230              27     975.7300000  645.27000  33.9%   9.1    0s
*  700   392              14     933.9700000  677.95500  27.4%   9.2    0s
H 2366   683                     886.1500000  704.53445  20.5%   8.1    0s

Cutting planes:
  Learned: 9
  Gomory: 17
  Cover: 22
  Implied bound: 42
  MIR: 2
  Inf proof: 13
  Zero half: 3
  RLT: 17

Explored 10087 nodes (82834 simplex iterations) in 0.83 seconds (1.10 work units)
Thread count was 16 (of 16 available processors)

Solution count 9: 886.15 933.97 975.73 ... 1783.87

Optimal solution found (tolerance 1.00e-04)
Best objective 8.861500000000e+02, best bound 8.861500000000e+02, gap 0.0000%

AMPL MP initial flat model has 631 variables (0 integer, 605 binary);
Objectives: 1 quadratic; 
Constraints:  325 linear; 5 quadratic;

AMPL MP final model has 631 variables (0 integer, 605 binary);
Objectives: 1 quadratic; 
Constraints:  325 linear; 5 quadratic;


-----RESULTS INFO-----
running_time:  0.89
TC.best_bound:  886.1500000000001
TC:  886.15
MIP Gap (%):  1.2829299522836544e-14
=== Vehicle Routes ===
Vehicle 1: 0 → 19
Vehicle 2: 0 → 18
Vehicle 2: 1 → 16
Vehicle 2: 2 → 13
Vehicle 2: 3 → 19
Vehicle 2: 9 → 1
Vehicle 2: 13 → 3
Vehicle 2: 16 → 2
Vehicle 2: 18 → 9
Vehicle 3: 0 → 10
Vehicle 3: 10 → 14
Vehicle 3: 14 → 19

=== Full Vehicle Routes ===
Vehicle 1: 0 → 0 (0<100)
Vehicle 2: 0 → 18 → 9 → 1 → 16 → 2 → 13 → 3 → 0 (84<100)
Vehicle 3: 0 → 10 → 14 → 0 (37<100)
Arc used by MRT line: y variables:
MRT used: 10 → 11
Customer assigment to PL: u variables:
4 16
5 14
6 13
7 11
8 18
Node is served by regular vehicle: g variables:
1
2
3
9
16
18
10
13
14
Customer assigment to Home delivery: gm variables:
1
2
3
9
Node total demands: ntd variables:
1 8 1
2 2 1
3 8 1
7 0 0
8 0 0
9 6 1
16 20 1
17 0 0
18 16 1
10 19 1
11 0 0
12 0 0
13 24 1
14 18 1
15 0 0
Customer's demand delivered to PL: l variables:
4
5
6
7
8
